Translating instance to solver...

Set parameter TimeLimit to value 28800
Gurobi Optimizer version 11.0.2 build v11.0.2rc0 (linux64 - "Ubuntu 22.04.4 LTS")

CPU model: Intel(R) Xeon(R) Gold 5120 CPU @ 2.20GHz, instruction set [SSE2|AVX|AVX2|AVX512]
Thread count: 28 physical cores, 56 logical processors, using up to 28 threads

Academic license 2463511 - for non-commercial use only - registered to lu___@cefet-rj.br
Optimize a model with 85165 rows, 41523 columns and 194718 nonzeros
Model fingerprint: 0x0c4ff627
Variable types: 1 continuous, 41522 integer (41460 binary)
Coefficient statistics:
  Matrix range     [1e+00, 1e+05]
  Objective range  [3e-01, 8e-01]
  Bounds range     [1e+00, 6e+01]
  RHS range        [1e+00, 1e+02]
Presolve removed 69370 rows and 35078 columns
Presolve time: 1.20s
Presolved: 15795 rows, 6445 columns, 43090 nonzeros
Variable types: 0 continuous, 6445 integer (6384 binary)
Found heuristic solution: objective 45.3534600
Found heuristic solution: objective 44.9034600

Root relaxation: objective 2.746840e+00, 1409 iterations, 0.06 seconds (0.07 work units)

    Nodes    |    Current Node    |     Objective Bounds      |     Work
 Expl Unexpl |  Obj  Depth IntInf | Incumbent    BestBd   Gap | It/Node Time

     0     0    2.74684    0   75   44.90346    2.74684  93.9%     -    1s
H    0     0                      44.4534600    2.74684  93.8%     -    1s
     0     0    2.77400    0  104   44.45346    2.77400  93.8%     -    2s
H    0     0                       5.5971280    2.77593  50.4%     -    2s
     0     0    2.80919    0  168    5.59713    2.80919  49.8%     -    2s
     0     0    2.81611    0  164    5.59713    2.81611  49.7%     -    2s
H    0     0                       5.2912370    2.82077  46.7%     -    2s
     0     0    2.82980    0  422    5.29124    2.82980  46.5%     -    3s
H    0     0                       4.0853460    2.83711  30.6%     -    3s
     0     0    2.87504    0  162    4.08535    2.87504  29.6%     -    3s
H    0     0                       3.3294550    2.87946  13.5%     -    3s
     0     0    2.87946    0  192    3.32946    2.87946  13.5%     -    4s
     0     0    2.88082    0  339    3.32946    2.88082  13.5%     -    4s
     0     0    2.88082    0   60    3.32946    2.88082  13.5%     -    4s
     0     0    2.88082    0  259    3.32946    2.88082  13.5%     -    5s
     0     0    2.88082    0  168    3.32946    2.88082  13.5%     -    6s
     0     0    2.88082    0  279    3.32946    2.88082  13.5%     -    7s
     0     0    2.88387    0  223    3.32946    2.88387  13.4%     -    7s
     0     0    2.93081    0  479    3.32946    2.93081  12.0%     -    8s
     0     0    2.94063    0  649    3.32946    2.94063  11.7%     -    8s
     0     0    2.96123    0  619    3.32946    2.96123  11.1%     -    9s
     0     0    2.96547    0  583    3.32946    2.96547  10.9%     -    9s
     0     2    2.96547    0  578    3.32946    2.96547  10.9%     -   10s
   186    64    3.03999   11  423    3.32946    2.99250  10.1%   301   15s

Cutting planes:
  Learned: 244
  Gomory: 1
  Implied bound: 252
  MIR: 38
  Zero half: 3
  RLT: 134
  Relax-and-lift: 18
  BQP: 249

Explored 884 nodes (168826 simplex iterations) in 18.55 seconds (15.58 work units)
Thread count was 28 (of 56 available processors)

Solution count 7: 3.32946 4.08535 5.29124 ... 45.3535

Optimal solution found (tolerance 1.00e-04)
Best objective 3.329455000000e+00, best bound 3.329455000000e+00, gap 0.0000%

Solver Wallclock Time (for this epsilon): 18.556386947631836 s
Python wallclock Time (for this epsilon): 25.573530435562134 s


Total Elapsed Time (since program call): 671.4688444137573 s

Results:

I = 3.3294550000000003 mA
C = 100.0 points
C ~= 40.0 km^2

Minimum Epsilon for this instance = 10
Maximum Epsilon for this instance = 100

Current Epsilon = 100


Preprocessing Time (for this epsilon): 0.010261297225952148 s


Updated solution vectors:
sol_I = [-0.9176730000000001,-1.223564,-1.367673,-1.367673,-1.367673,-1.6735639999999998,-1.817673,-2.123564,-2.573564,-3.3294550000000003]
sol_C = [15.0,20.0,49.0,47.0,56.0,61.0,70.0,80.0,90.0,100.0]
sol_eps = [10,20,30,40,50,60,70,80,90,100]
sol_gap = [0.0,0.0,0.0,3.0375000092952575e-07,1.912499996148398e-07,0.0,0.0,0.0,0.0,0.0]
